c File: flat175_3_0.col
c
c SOURCE: Joseph Culberson (joe@cs.ualberta.ca)
c DESCRIPTION: Quasi-random coloring problem
c              generated with flatness = 0
c                             probability = 0.041
c                             known coloring = 3
c                             random seed = 1100
c              Creation Date:  Wed Feb 24 10:55:41 1999
c Maximum degree = 8 Minimum degree = 1
c COLOR VERIFICATION: Using the permuted order
c under simple greedy yields the specified
c coloring number
c Color = 3 specified partitions = 3
c p edge 175 417
c cnf created by edge2cnf
p cnf 525 1951
-1 -2 0
-1 -3 0
-2 -3 0
1 2 3 0
-4 -5 0
-4 -6 0
-5 -6 0
4 5 6 0
-7 -8 0
-7 -9 0
-8 -9 0
7 8 9 0
-10 -11 0
-10 -12 0
-11 -12 0
10 11 12 0
-13 -14 0
-13 -15 0
-14 -15 0
13 14 15 0
-16 -17 0
-16 -18 0
-17 -18 0
16 17 18 0
-19 -20 0
-19 -21 0
-20 -21 0
19 20 21 0
-22 -23 0
-22 -24 0
-23 -24 0
22 23 24 0
-25 -26 0
-25 -27 0
-26 -27 0
25 26 27 0
-28 -29 0
-28 -30 0
-29 -30 0
28 29 30 0
-31 -32 0
-31 -33 0
-32 -33 0
31 32 33 0
-34 -35 0
-34 -36 0
-35 -36 0
34 35 36 0
-37 -38 0
-37 -39 0
-38 -39 0
37 38 39 0
-40 -41 0
-40 -42 0
-41 -42 0
40 41 42 0
-43 -44 0
-43 -45 0
-44 -45 0
43 44 45 0
-46 -47 0
-46 -48 0
-47 -48 0
46 47 48 0
-49 -50 0
-49 -51 0
-50 -51 0
49 50 51 0
-52 -53 0
-52 -54 0
-53 -54 0
52 53 54 0
-55 -56 0
-55 -57 0
-56 -57 0
55 56 57 0
-58 -59 0
-58 -60 0
-59 -60 0
58 59 60 0
-61 -62 0
-61 -63 0
-62 -63 0
61 62 63 0
-64 -65 0
-64 -66 0
-65 -66 0
64 65 66 0
-67 -68 0
-67 -69 0
-68 -69 0
67 68 69 0
-70 -71 0
-70 -72 0
-71 -72 0
70 71 72 0
-73 -74 0
-73 -75 0
-74 -75 0
73 74 75 0
-76 -77 0
-76 -78 0
-77 -78 0
76 77 78 0
-79 -80 0
-79 -81 0
-80 -81 0
79 80 81 0
-82 -83 0
-82 -84 0
-83 -84 0
82 83 84 0
-85 -86 0
-85 -87 0
-86 -87 0
85 86 87 0
-88 -89 0
-88 -90 0
-89 -90 0
88 89 90 0
-91 -92 0
-91 -93 0
-92 -93 0
91 92 93 0
-94 -95 0
-94 -96 0
-95 -96 0
94 95 96 0
-97 -98 0
-97 -99 0
-98 -99 0
97 98 99 0
-100 -101 0
-100 -102 0
-101 -102 0
100 101 102 0
-103 -104 0
-103 -105 0
-104 -105 0
103 104 105 0
-106 -107 0
-106 -108 0
-107 -108 0
106 107 108 0
-109 -110 0
-109 -111 0
-110 -111 0
109 110 111 0
-112 -113 0
-112 -114 0
-113 -114 0
112 113 114 0
-115 -116 0
-115 -117 0
-116 -117 0
115 116 117 0
-118 -119 0
-118 -120 0
-119 -120 0
118 119 120 0
-121 -122 0
-121 -123 0
-122 -123 0
121 122 123 0
-124 -125 0
-124 -126 0
-125 -126 0
124 125 126 0
-127 -128 0
-127 -129 0
-128 -129 0
127 128 129 0
-130 -131 0
-130 -132 0
-131 -132 0
130 131 132 0
-133 -134 0
-133 -135 0
-134 -135 0
133 134 135 0
-136 -137 0
-136 -138 0
-137 -138 0
136 137 138 0
-139 -140 0
-139 -141 0
-140 -141 0
139 140 141 0
-142 -143 0
-142 -144 0
-143 -144 0
142 143 144 0
-145 -146 0
-145 -147 0
-146 -147 0
145 146 147 0
-148 -149 0
-148 -150 0
-149 -150 0
148 149 150 0
-151 -152 0
-151 -153 0
-152 -153 0
151 152 153 0
-154 -155 0
-154 -156 0
-155 -156 0
154 155 156 0
-157 -158 0
-157 -159 0
-158 -159 0
157 158 159 0
-160 -161 0
-160 -162 0
-161 -162 0
160 161 162 0
-163 -164 0
-163 -165 0
-164 -165 0
163 164 165 0
-166 -167 0
-166 -168 0
-167 -168 0
166 167 168 0
-169 -170 0
-169 -171 0
-170 -171 0
169 170 171 0
-172 -173 0
-172 -174 0
-173 -174 0
172 173 174 0
-175 -176 0
-175 -177 0
-176 -177 0
175 176 177 0
-178 -179 0
-178 -180 0
-179 -180 0
178 179 180 0
-181 -182 0
-181 -183 0
-182 -183 0
181 182 183 0
-184 -185 0
-184 -186 0
-185 -186 0
184 185 186 0
-187 -188 0
-187 -189 0
-188 -189 0
187 188 189 0
-190 -191 0
-190 -192 0
-191 -192 0
190 191 192 0
-193 -194 0
-193 -195 0
-194 -195 0
193 194 195 0
-196 -197 0
-196 -198 0
-197 -198 0
196 197 198 0
-199 -200 0
-199 -201 0
-200 -201 0
199 200 201 0
-202 -203 0
-202 -204 0
-203 -204 0
202 203 204 0
-205 -206 0
-205 -207 0
-206 -207 0
205 206 207 0
-208 -209 0
-208 -210 0
-209 -210 0
208 209 210 0
-211 -212 0
-211 -213 0
-212 -213 0
211 212 213 0
-214 -215 0
-214 -216 0
-215 -216 0
214 215 216 0
-217 -218 0
-217 -219 0
-218 -219 0
217 218 219 0
-220 -221 0
-220 -222 0
-221 -222 0
220 221 222 0
-223 -224 0
-223 -225 0
-224 -225 0
223 224 225 0
-226 -227 0
-226 -228 0
-227 -228 0
226 227 228 0
-229 -230 0
-229 -231 0
-230 -231 0
229 230 231 0
-232 -233 0
-232 -234 0
-233 -234 0
232 233 234 0
-235 -236 0
-235 -237 0
-236 -237 0
235 236 237 0
-238 -239 0
-238 -240 0
-239 -240 0
238 239 240 0
-241 -242 0
-241 -243 0
-242 -243 0
241 242 243 0
-244 -245 0
-244 -246 0
-245 -246 0
244 245 246 0
-247 -248 0
-247 -249 0
-248 -249 0
247 248 249 0
-250 -251 0
-250 -252 0
-251 -252 0
250 251 252 0
-253 -254 0
-253 -255 0
-254 -255 0
253 254 255 0
-256 -257 0
-256 -258 0
-257 -258 0
256 257 258 0
-259 -260 0
-259 -261 0
-260 -261 0
259 260 261 0
-262 -263 0
-262 -264 0
-263 -264 0
262 263 264 0
-265 -266 0
-265 -267 0
-266 -267 0
265 266 267 0
-268 -269 0
-268 -270 0
-269 -270 0
268 269 270 0
-271 -272 0
-271 -273 0
-272 -273 0
271 272 273 0
-274 -275 0
-274 -276 0
-275 -276 0
274 275 276 0
-277 -278 0
-277 -279 0
-278 -279 0
277 278 279 0
-280 -281 0
-280 -282 0
-281 -282 0
280 281 282 0
-283 -284 0
-283 -285 0
-284 -285 0
283 284 285 0
-286 -287 0
-286 -288 0
-287 -288 0
286 287 288 0
-289 -290 0
-289 -291 0
-290 -291 0
289 290 291 0
-292 -293 0
-292 -294 0
-293 -294 0
292 293 294 0
-295 -296 0
-295 -297 0
-296 -297 0
295 296 297 0
-298 -299 0
-298 -300 0
-299 -300 0
298 299 300 0
-301 -302 0
-301 -303 0
-302 -303 0
301 302 303 0
-304 -305 0
-304 -306 0
-305 -306 0
304 305 306 0
-307 -308 0
-307 -309 0
-308 -309 0
307 308 309 0
-310 -311 0
-310 -312 0
-311 -312 0
310 311 312 0
-313 -314 0
-313 -315 0
-314 -315 0
313 314 315 0
-316 -317 0
-316 -318 0
-317 -318 0
316 317 318 0
-319 -320 0
-319 -321 0
-320 -321 0
319 320 321 0
-322 -323 0
-322 -324 0
-323 -324 0
322 323 324 0
-325 -326 0
-325 -327 0
-326 -327 0
325 326 327 0
-328 -329 0
-328 -330 0
-329 -330 0
328 329 330 0
-331 -332 0
-331 -333 0
-332 -333 0
331 332 333 0
-334 -335 0
-334 -336 0
-335 -336 0
334 335 336 0
-337 -338 0
-337 -339 0
-338 -339 0
337 338 339 0
-340 -341 0
-340 -342 0
-341 -342 0
340 341 342 0
-343 -344 0
-343 -345 0
-344 -345 0
343 344 345 0
-346 -347 0
-346 -348 0
-347 -348 0
346 347 348 0
-349 -350 0
-349 -351 0
-350 -351 0
349 350 351 0
-352 -353 0
-352 -354 0
-353 -354 0
352 353 354 0
-355 -356 0
-355 -357 0
-356 -357 0
355 356 357 0
-358 -359 0
-358 -360 0
-359 -360 0
358 359 360 0
-361 -362 0
-361 -363 0
-362 -363 0
361 362 363 0
-364 -365 0
-364 -366 0
-365 -366 0
364 365 366 0
-367 -368 0
-367 -369 0
-368 -369 0
367 368 369 0
-370 -371 0
-370 -372 0
-371 -372 0
370 371 372 0
-373 -374 0
-373 -375 0
-374 -375 0
373 374 375 0
-376 -377 0
-376 -378 0
-377 -378 0
376 377 378 0
-379 -380 0
-379 -381 0
-380 -381 0
379 380 381 0
-382 -383 0
-382 -384 0
-383 -384 0
382 383 384 0
-385 -386 0
-385 -387 0
-386 -387 0
385 386 387 0
-388 -389 0
-388 -390 0
-389 -390 0
388 389 390 0
-391 -392 0
-391 -393 0
-392 -393 0
391 392 393 0
-394 -395 0
-394 -396 0
-395 -396 0
394 395 396 0
-397 -398 0
-397 -399 0
-398 -399 0
397 398 399 0
-400 -401 0
-400 -402 0
-401 -402 0
400 401 402 0
-403 -404 0
-403 -405 0
-404 -405 0
403 404 405 0
-406 -407 0
-406 -408 0
-407 -408 0
406 407 408 0
-409 -410 0
-409 -411 0
-410 -411 0
409 410 411 0
-412 -413 0
-412 -414 0
-413 -414 0
412 413 414 0
-415 -416 0
-415 -417 0
-416 -417 0
415 416 417 0
-418 -419 0
-418 -420 0
-419 -420 0
418 419 420 0
-421 -422 0
-421 -423 0
-422 -423 0
421 422 423 0
-424 -425 0
-424 -426 0
-425 -426 0
424 425 426 0
-427 -428 0
-427 -429 0
-428 -429 0
427 428 429 0
-430 -431 0
-430 -432 0
-431 -432 0
430 431 432 0
-433 -434 0
-433 -435 0
-434 -435 0
433 434 435 0
-436 -437 0
-436 -438 0
-437 -438 0
436 437 438 0
-439 -440 0
-439 -441 0
-440 -441 0
439 440 441 0
-442 -443 0
-442 -444 0
-443 -444 0
442 443 444 0
-445 -446 0
-445 -447 0
-446 -447 0
445 446 447 0
-448 -449 0
-448 -450 0
-449 -450 0
448 449 450 0
-451 -452 0
-451 -453 0
-452 -453 0
451 452 453 0
-454 -455 0
-454 -456 0
-455 -456 0
454 455 456 0
-457 -458 0
-457 -459 0
-458 -459 0
457 458 459 0
-460 -461 0
-460 -462 0
-461 -462 0
460 461 462 0
-463 -464 0
-463 -465 0
-464 -465 0
463 464 465 0
-466 -467 0
-466 -468 0
-467 -468 0
466 467 468 0
-469 -470 0
-469 -471 0
-470 -471 0
469 470 471 0
-472 -473 0
-472 -474 0
-473 -474 0
472 473 474 0
-475 -476 0
-475 -477 0
-476 -477 0
475 476 477 0
-478 -479 0
-478 -480 0
-479 -480 0
478 479 480 0
-481 -482 0
-481 -483 0
-482 -483 0
481 482 483 0
-484 -485 0
-484 -486 0
-485 -486 0
484 485 486 0
-487 -488 0
-487 -489 0
-488 -489 0
487 488 489 0
-490 -491 0
-490 -492 0
-491 -492 0
490 491 492 0
-493 -494 0
-493 -495 0
-494 -495 0
493 494 495 0
-496 -497 0
-496 -498 0
-497 -498 0
496 497 498 0
-499 -500 0
-499 -501 0
-500 -501 0
499 500 501 0
-502 -503 0
-502 -504 0
-503 -504 0
502 503 504 0
-505 -506 0
-505 -507 0
-506 -507 0
505 506 507 0
-508 -509 0
-508 -510 0
-509 -510 0
508 509 510 0
-511 -512 0
-511 -513 0
-512 -513 0
511 512 513 0
-514 -515 0
-514 -516 0
-515 -516 0
514 515 516 0
-517 -518 0
-517 -519 0
-518 -519 0
517 518 519 0
-520 -521 0
-520 -522 0
-521 -522 0
520 521 522 0
-523 -524 0
-523 -525 0
-524 -525 0
523 524 525 0
-106 -1 0
-107 -2 0
-108 -3 0
-115 -1 0
-116 -2 0
-117 -3 0
-118 -1 0
-119 -2 0
-120 -3 0
-346 -1 0
-347 -2 0
-348 -3 0
-517 -1 0
-518 -2 0
-519 -3 0
-55 -4 0
-56 -5 0
-57 -6 0
-82 -4 0
-83 -5 0
-84 -6 0
-109 -4 0
-110 -5 0
-111 -6 0
-166 -4 0
-167 -5 0
-168 -6 0
-331 -4 0
-332 -5 0
-333 -6 0
-355 -4 0
-356 -5 0
-357 -6 0
-415 -4 0
-416 -5 0
-417 -6 0
-91 -7 0
-92 -8 0
-93 -9 0
-163 -7 0
-164 -8 0
-165 -9 0
-232 -7 0
-233 -8 0
-234 -9 0
-262 -7 0
-263 -8 0
-264 -9 0
-283 -7 0
-284 -8 0
-285 -9 0
-349 -7 0
-350 -8 0
-351 -9 0
-463 -7 0
-464 -8 0
-465 -9 0
-19 -10 0
-20 -11 0
-21 -12 0
-232 -10 0
-233 -11 0
-234 -12 0
-448 -10 0
-449 -11 0
-450 -12 0
-457 -10 0
-458 -11 0
-459 -12 0
-223 -13 0
-224 -14 0
-225 -15 0
-304 -13 0
-305 -14 0
-306 -15 0
-361 -13 0
-362 -14 0
-363 -15 0
-382 -13 0
-383 -14 0
-384 -15 0
-175 -16 0
-176 -17 0
-177 -18 0
-160 -19 0
-161 -20 0
-162 -21 0
-271 -19 0
-272 -20 0
-273 -21 0
-43 -22 0
-44 -23 0
-45 -24 0
-133 -22 0
-134 -23 0
-135 -24 0
-427 -22 0
-428 -23 0
-429 -24 0
-511 -22 0
-512 -23 0
-513 -24 0
-55 -25 0
-56 -26 0
-57 -27 0
-163 -25 0
-164 -26 0
-165 -27 0
-235 -25 0
-236 -26 0
-237 -27 0
-322 -25 0
-323 -26 0
-324 -27 0
-403 -25 0
-404 -26 0
-405 -27 0
-448 -25 0
-449 -26 0
-450 -27 0
-94 -28 0
-95 -29 0
-96 -30 0
-253 -28 0
-254 -29 0
-255 -30 0
-265 -28 0
-266 -29 0
-267 -30 0
-457 -28 0
-458 -29 0
-459 -30 0
-94 -31 0
-95 -32 0
-96 -33 0
-121 -31 0
-122 -32 0
-123 -33 0
-244 -31 0
-245 -32 0
-246 -33 0
-310 -31 0
-311 -32 0
-312 -33 0
-151 -34 0
-152 -35 0
-153 -36 0
-316 -34 0
-317 -35 0
-318 -36 0
-358 -34 0
-359 -35 0
-360 -36 0
-376 -34 0
-377 -35 0
-378 -36 0
-493 -34 0
-494 -35 0
-495 -36 0
-67 -37 0
-68 -38 0
-69 -39 0
-73 -37 0
-74 -38 0
-75 -39 0
-97 -37 0
-98 -38 0
-99 -39 0
-205 -37 0
-206 -38 0
-207 -39 0
-436 -37 0
-437 -38 0
-438 -39 0
-502 -37 0
-503 -38 0
-504 -39 0
-520 -37 0
-521 -38 0
-522 -39 0
-88 -40 0
-89 -41 0
-90 -42 0
-226 -40 0
-227 -41 0
-228 -42 0
-313 -40 0
-314 -41 0
-315 -42 0
-454 -40 0
-455 -41 0
-456 -42 0
-121 -43 0
-122 -44 0
-123 -45 0
-238 -43 0
-239 -44 0
-240 -45 0
-286 -43 0
-287 -44 0
-288 -45 0
-340 -43 0
-341 -44 0
-342 -45 0
-427 -43 0
-428 -44 0
-429 -45 0
-82 -46 0
-83 -47 0
-84 -48 0
-130 -46 0
-131 -47 0
-132 -48 0
-199 -46 0
-200 -47 0
-201 -48 0
-259 -46 0
-260 -47 0
-261 -48 0
-154 -49 0
-155 -50 0
-156 -51 0
-199 -49 0
-200 -50 0
-201 -51 0
-250 -49 0
-251 -50 0
-252 -51 0
-253 -49 0
-254 -50 0
-255 -51 0
-331 -49 0
-332 -50 0
-333 -51 0
-160 -52 0
-161 -53 0
-162 -54 0
-466 -52 0
-467 -53 0
-468 -54 0
-517 -55 0
-518 -56 0
-519 -57 0
-85 -58 0
-86 -59 0
-87 -60 0
-253 -58 0
-254 -59 0
-255 -60 0
-298 -58 0
-299 -59 0
-300 -60 0
-73 -61 0
-74 -62 0
-75 -63 0
-115 -61 0
-116 -62 0
-117 -63 0
-136 -61 0
-137 -62 0
-138 -63 0
-322 -61 0
-323 -62 0
-324 -63 0
-292 -64 0
-293 -65 0
-294 -66 0
-349 -64 0
-350 -65 0
-351 -66 0
-139 -67 0
-140 -68 0
-141 -69 0
-166 -67 0
-167 -68 0
-168 -69 0
-214 -67 0
-215 -68 0
-216 -69 0
-259 -67 0
-260 -68 0
-261 -69 0
-151 -70 0
-152 -71 0
-153 -72 0
-196 -70 0
-197 -71 0
-198 -72 0
-286 -70 0
-287 -71 0
-288 -72 0
-406 -70 0
-407 -71 0
-408 -72 0
-145 -73 0
-146 -74 0
-147 -75 0
-247 -73 0
-248 -74 0
-249 -75 0
-334 -73 0
-335 -74 0
-336 -75 0
-403 -73 0
-404 -74 0
-405 -75 0
-475 -73 0
-476 -74 0
-477 -75 0
-487 -73 0
-488 -74 0
-489 -75 0
-115 -76 0
-116 -77 0
-117 -78 0
-118 -76 0
-119 -77 0
-120 -78 0
-172 -76 0
-173 -77 0
-174 -78 0
-259 -76 0
-260 -77 0
-261 -78 0
-364 -76 0
-365 -77 0
-366 -78 0
-391 -76 0
-392 -77 0
-393 -78 0
-490 -76 0
-491 -77 0
-492 -78 0
-175 -79 0
-176 -80 0
-177 -81 0
-190 -79 0
-191 -80 0
-192 -81 0
-523 -79 0
-524 -80 0
-525 -81 0
-307 -82 0
-308 -83 0
-309 -84 0
-334 -82 0
-335 -83 0
-336 -84 0
-337 -82 0
-338 -83 0
-339 -84 0
-442 -82 0
-443 -83 0
-444 -84 0
-487 -82 0
-488 -83 0
-489 -84 0
-214 -85 0
-215 -86 0
-216 -87 0
-355 -85 0
-356 -86 0
-357 -87 0
-466 -85 0
-467 -86 0
-468 -87 0
-217 -88 0
-218 -89 0
-219 -90 0
-271 -88 0
-272 -89 0
-273 -90 0
-361 -88 0
-362 -89 0
-363 -90 0
-187 -91 0
-188 -92 0
-189 -93 0
-421 -91 0
-422 -92 0
-423 -93 0
-103 -94 0
-104 -95 0
-105 -96 0
-214 -94 0
-215 -95 0
-216 -96 0
-274 -94 0
-275 -95 0
-276 -96 0
-157 -97 0
-158 -98 0
-159 -99 0
-247 -97 0
-248 -98 0
-249 -99 0
-253 -97 0
-254 -98 0
-255 -99 0
-298 -97 0
-299 -98 0
-300 -99 0
-364 -97 0
-365 -98 0
-366 -99 0
-106 -100 0
-107 -101 0
-108 -102 0
-133 -100 0
-134 -101 0
-135 -102 0
-325 -100 0
-326 -101 0
-327 -102 0
-208 -103 0
-209 -104 0
-210 -105 0
-241 -103 0
-242 -104 0
-243 -105 0
-511 -103 0
-512 -104 0
-513 -105 0
-250 -106 0
-251 -107 0
-252 -108 0
-508 -106 0
-509 -107 0
-510 -108 0
-169 -109 0
-170 -110 0
-171 -111 0
-355 -109 0
-356 -110 0
-357 -111 0
-361 -109 0
-362 -110 0
-363 -111 0
-457 -109 0
-458 -110 0
-459 -111 0
-247 -112 0
-248 -113 0
-249 -114 0
-304 -112 0
-305 -113 0
-306 -114 0
-367 -112 0
-368 -113 0
-369 -114 0
-196 -115 0
-197 -116 0
-198 -117 0
-283 -115 0
-284 -116 0
-285 -117 0
-400 -115 0
-401 -116 0
-402 -117 0
-451 -115 0
-452 -116 0
-453 -117 0
-238 -118 0
-239 -119 0
-240 -120 0
-379 -118 0
-380 -119 0
-381 -120 0
-421 -118 0
-422 -119 0
-423 -120 0
-205 -121 0
-206 -122 0
-207 -123 0
-208 -121 0
-209 -122 0
-210 -123 0
-487 -121 0
-488 -122 0
-489 -123 0
-511 -121 0
-512 -122 0
-513 -123 0
-130 -124 0
-131 -125 0
-132 -126 0
-181 -124 0
-182 -125 0
-183 -126 0
-256 -124 0
-257 -125 0
-258 -126 0
-487 -124 0
-488 -125 0
-489 -126 0
-508 -124 0
-509 -125 0
-510 -126 0
-523 -124 0
-524 -125 0
-525 -126 0
-151 -127 0
-152 -128 0
-153 -129 0
-280 -127 0
-281 -128 0
-282 -129 0
-343 -127 0
-344 -128 0
-345 -129 0
-436 -127 0
-437 -128 0
-438 -129 0
-463 -127 0
-464 -128 0
-465 -129 0
-496 -127 0
-497 -128 0
-498 -129 0
-514 -127 0
-515 -128 0
-516 -129 0
-487 -130 0
-488 -131 0
-489 -132 0
-349 -133 0
-350 -134 0
-351 -135 0
-361 -133 0
-362 -134 0
-363 -135 0
-388 -133 0
-389 -134 0
-390 -135 0
-310 -136 0
-311 -137 0
-312 -138 0
-316 -136 0
-317 -137 0
-318 -138 0
-370 -136 0
-371 -137 0
-372 -138 0
-394 -136 0
-395 -137 0
-396 -138 0
-463 -136 0
-464 -137 0
-465 -138 0
-175 -139 0
-176 -140 0
-177 -141 0
-187 -139 0
-188 -140 0
-189 -141 0
-190 -139 0
-191 -140 0
-192 -141 0
-325 -139 0
-326 -140 0
-327 -141 0
-511 -139 0
-512 -140 0
-513 -141 0
-514 -139 0
-515 -140 0
-516 -141 0
-274 -142 0
-275 -143 0
-276 -144 0
-307 -142 0
-308 -143 0
-309 -144 0
-379 -142 0
-380 -143 0
-381 -144 0
-247 -145 0
-248 -146 0
-249 -147 0
-319 -145 0
-320 -146 0
-321 -147 0
-373 -145 0
-374 -146 0
-375 -147 0
-427 -145 0
-428 -146 0
-429 -147 0
-505 -145 0
-506 -146 0
-507 -147 0
-175 -148 0
-176 -149 0
-177 -150 0
-211 -148 0
-212 -149 0
-213 -150 0
-367 -148 0
-368 -149 0
-369 -150 0
-499 -148 0
-500 -149 0
-501 -150 0
-403 -151 0
-404 -152 0
-405 -153 0
-367 -154 0
-368 -155 0
-369 -156 0
-415 -154 0
-416 -155 0
-417 -156 0
-166 -157 0
-167 -158 0
-168 -159 0
-241 -157 0
-242 -158 0
-243 -159 0
-445 -157 0
-446 -158 0
-447 -159 0
-193 -160 0
-194 -161 0
-195 -162 0
-322 -160 0
-323 -161 0
-324 -162 0
-379 -160 0
-380 -161 0
-381 -162 0
-493 -160 0
-494 -161 0
-495 -162 0
-172 -163 0
-173 -164 0
-174 -165 0
-220 -163 0
-221 -164 0
-222 -165 0
-229 -163 0
-230 -164 0
-231 -165 0
-250 -163 0
-251 -164 0
-252 -165 0
-334 -163 0
-335 -164 0
-336 -165 0
-346 -166 0
-347 -167 0
-348 -168 0
-493 -166 0
-494 -167 0
-495 -168 0
-496 -166 0
-497 -167 0
-498 -168 0
-172 -169 0
-173 -170 0
-174 -171 0
-190 -169 0
-191 -170 0
-192 -171 0
-214 -169 0
-215 -170 0
-216 -171 0
-388 -169 0
-389 -170 0
-390 -171 0
-436 -169 0
-437 -170 0
-438 -171 0
-514 -169 0
-515 -170 0
-516 -171 0
-388 -172 0
-389 -173 0
-390 -174 0
-409 -172 0
-410 -173 0
-411 -174 0
-478 -172 0
-479 -173 0
-480 -174 0
-481 -172 0
-482 -173 0
-483 -174 0
-505 -172 0
-506 -173 0
-507 -174 0
-217 -175 0
-218 -176 0
-219 -177 0
-469 -175 0
-470 -176 0
-471 -177 0
-223 -178 0
-224 -179 0
-225 -180 0
-262 -178 0
-263 -179 0
-264 -180 0
-340 -178 0
-341 -179 0
-342 -180 0
-355 -178 0
-356 -179 0
-357 -180 0
-271 -181 0
-272 -182 0
-273 -183 0
-310 -181 0
-311 -182 0
-312 -183 0
-292 -184 0
-293 -185 0
-294 -186 0
-481 -184 0
-482 -185 0
-483 -186 0
-244 -187 0
-245 -188 0
-246 -189 0
-277 -187 0
-278 -188 0
-279 -189 0
-400 -187 0
-401 -188 0
-402 -189 0
-196 -190 0
-197 -191 0
-198 -192 0
-223 -190 0
-224 -191 0
-225 -192 0
-493 -190 0
-494 -191 0
-495 -192 0
-496 -190 0
-497 -191 0
-498 -192 0
-223 -193 0
-224 -194 0
-225 -195 0
-244 -193 0
-245 -194 0
-246 -195 0
-289 -193 0
-290 -194 0
-291 -195 0
-457 -193 0
-458 -194 0
-459 -195 0
-490 -193 0
-491 -194 0
-492 -195 0
-496 -193 0
-497 -194 0
-498 -195 0
-205 -196 0
-206 -197 0
-207 -198 0
-265 -196 0
-266 -197 0
-267 -198 0
-232 -199 0
-233 -200 0
-234 -201 0
-400 -199 0
-401 -200 0
-402 -201 0
-406 -199 0
-407 -200 0
-408 -201 0
-493 -202 0
-494 -203 0
-495 -204 0
-274 -205 0
-275 -206 0
-276 -207 0
-313 -205 0
-314 -206 0
-315 -207 0
-358 -205 0
-359 -206 0
-360 -207 0
-430 -205 0
-431 -206 0
-432 -207 0
-436 -205 0
-437 -206 0
-438 -207 0
-211 -208 0
-212 -209 0
-213 -210 0
-244 -208 0
-245 -209 0
-246 -210 0
-508 -208 0
-509 -209 0
-510 -210 0
-385 -211 0
-386 -212 0
-387 -213 0
-475 -211 0
-476 -212 0
-477 -213 0
-523 -211 0
-524 -212 0
-525 -213 0
-418 -214 0
-419 -215 0
-420 -216 0
-448 -214 0
-449 -215 0
-450 -216 0
-274 -217 0
-275 -218 0
-276 -219 0
-355 -217 0
-356 -218 0
-357 -219 0
-361 -217 0
-362 -218 0
-363 -219 0
-238 -220 0
-239 -221 0
-240 -222 0
-328 -220 0
-329 -221 0
-330 -222 0
-436 -220 0
-437 -221 0
-438 -222 0
-442 -220 0
-443 -221 0
-444 -222 0
-253 -223 0
-254 -224 0
-255 -225 0
-442 -223 0
-443 -224 0
-444 -225 0
-358 -226 0
-359 -227 0
-360 -228 0
-247 -229 0
-248 -230 0
-249 -231 0
-313 -229 0
-314 -230 0
-315 -231 0
-301 -232 0
-302 -233 0
-303 -234 0
-250 -235 0
-251 -236 0
-252 -237 0
-334 -235 0
-335 -236 0
-336 -237 0
-418 -235 0
-419 -236 0
-420 -237 0
-454 -235 0
-455 -236 0
-456 -237 0
-490 -238 0
-491 -239 0
-492 -240 0
-523 -238 0
-524 -239 0
-525 -240 0
-277 -241 0
-278 -242 0
-279 -243 0
-283 -241 0
-284 -242 0
-285 -243 0
-403 -241 0
-404 -242 0
-405 -243 0
-409 -244 0
-410 -245 0
-411 -246 0
-427 -244 0
-428 -245 0
-429 -246 0
-490 -244 0
-491 -245 0
-492 -246 0
-493 -244 0
-494 -245 0
-495 -246 0
-265 -247 0
-266 -248 0
-267 -249 0
-340 -250 0
-341 -251 0
-342 -252 0
-352 -253 0
-353 -254 0
-354 -255 0
-403 -253 0
-404 -254 0
-405 -255 0
-427 -253 0
-428 -254 0
-429 -255 0
-289 -256 0
-290 -257 0
-291 -258 0
-319 -259 0
-320 -260 0
-321 -261 0
-385 -259 0
-386 -260 0
-387 -261 0
-466 -259 0
-467 -260 0
-468 -261 0
-316 -262 0
-317 -263 0
-318 -264 0
-382 -262 0
-383 -263 0
-384 -264 0
-514 -262 0
-515 -263 0
-516 -264 0
-322 -265 0
-323 -266 0
-324 -267 0
-355 -265 0
-356 -266 0
-357 -267 0
-436 -265 0
-437 -266 0
-438 -267 0
-271 -268 0
-272 -269 0
-273 -270 0
-448 -271 0
-449 -272 0
-450 -273 0
-520 -274 0
-521 -275 0
-522 -276 0
-346 -280 0
-347 -281 0
-348 -282 0
-352 -280 0
-353 -281 0
-354 -282 0
-364 -280 0
-365 -281 0
-366 -282 0
-376 -280 0
-377 -281 0
-378 -282 0
-295 -286 0
-296 -287 0
-297 -288 0
-496 -286 0
-497 -287 0
-498 -288 0
-301 -289 0
-302 -290 0
-303 -291 0
-448 -289 0
-449 -290 0
-450 -291 0
-487 -289 0
-488 -290 0
-489 -291 0
-508 -289 0
-509 -290 0
-510 -291 0
-343 -292 0
-344 -293 0
-345 -294 0
-352 -292 0
-353 -293 0
-354 -294 0
-376 -292 0
-377 -293 0
-378 -294 0
-463 -292 0
-464 -293 0
-465 -294 0
-409 -295 0
-410 -296 0
-411 -297 0
-409 -298 0
-410 -299 0
-411 -300 0
-436 -298 0
-437 -299 0
-438 -300 0
-439 -298 0
-440 -299 0
-441 -300 0
-304 -301 0
-305 -302 0
-306 -303 0
-370 -301 0
-371 -302 0
-372 -303 0
-412 -301 0
-413 -302 0
-414 -303 0
-463 -301 0
-464 -302 0
-465 -303 0
-502 -301 0
-503 -302 0
-504 -303 0
-403 -304 0
-404 -305 0
-405 -306 0
-460 -304 0
-461 -305 0
-462 -306 0
-463 -304 0
-464 -305 0
-465 -306 0
-442 -307 0
-443 -308 0
-444 -309 0
-364 -310 0
-365 -311 0
-366 -312 0
-391 -316 0
-392 -317 0
-393 -318 0
-439 -316 0
-440 -317 0
-441 -318 0
-472 -316 0
-473 -317 0
-474 -318 0
-475 -316 0
-476 -317 0
-477 -318 0
-499 -316 0
-500 -317 0
-501 -318 0
-322 -319 0
-323 -320 0
-324 -321 0
-460 -319 0
-461 -320 0
-462 -321 0
-325 -322 0
-326 -323 0
-327 -324 0
-400 -322 0
-401 -323 0
-402 -324 0
-340 -325 0
-341 -326 0
-342 -327 0
-409 -325 0
-410 -326 0
-411 -327 0
-430 -328 0
-431 -329 0
-432 -330 0
-382 -331 0
-383 -332 0
-384 -333 0
-475 -331 0
-476 -332 0
-477 -333 0
-376 -334 0
-377 -335 0
-378 -336 0
-376 -337 0
-377 -338 0
-378 -339 0
-424 -337 0
-425 -338 0
-426 -339 0
-433 -337 0
-434 -338 0
-435 -339 0
-493 -337 0
-494 -338 0
-495 -339 0
-502 -337 0
-503 -338 0
-504 -339 0
-373 -340 0
-374 -341 0
-375 -342 0
-376 -340 0
-377 -341 0
-378 -342 0
-505 -340 0
-506 -341 0
-507 -342 0
-454 -346 0
-455 -347 0
-456 -348 0
-457 -346 0
-458 -347 0
-459 -348 0
-469 -346 0
-470 -347 0
-471 -348 0
-499 -346 0
-500 -347 0
-501 -348 0
-373 -349 0
-374 -350 0
-375 -351 0
-397 -349 0
-398 -350 0
-399 -351 0
-469 -349 0
-470 -350 0
-471 -351 0
-502 -349 0
-503 -350 0
-504 -351 0
-442 -352 0
-443 -353 0
-444 -354 0
-466 -352 0
-467 -353 0
-468 -354 0
-373 -355 0
-374 -356 0
-375 -357 0
-373 -358 0
-374 -359 0
-375 -360 0
-376 -358 0
-377 -359 0
-378 -360 0
-424 -361 0
-425 -362 0
-426 -363 0
-454 -361 0
-455 -362 0
-456 -363 0
-367 -364 0
-368 -365 0
-369 -366 0
-517 -364 0
-518 -365 0
-519 -366 0
-370 -367 0
-371 -368 0
-372 -369 0
-472 -367 0
-473 -368 0
-474 -369 0
-382 -370 0
-383 -371 0
-384 -372 0
-388 -370 0
-389 -371 0
-390 -372 0
-466 -370 0
-467 -371 0
-468 -372 0
-481 -370 0
-482 -371 0
-483 -372 0
-385 -373 0
-386 -374 0
-387 -375 0
-475 -379 0
-476 -380 0
-477 -381 0
-415 -391 0
-416 -392 0
-417 -393 0
-499 -391 0
-500 -392 0
-501 -393 0
-409 -394 0
-410 -395 0
-411 -396 0
-427 -400 0
-428 -401 0
-429 -402 0
-520 -406 0
-521 -407 0
-522 -408 0
-418 -409 0
-419 -410 0
-420 -411 0
-457 -409 0
-458 -410 0
-459 -411 0
-421 -412 0
-422 -413 0
-423 -414 0
-490 -412 0
-491 -413 0
-492 -414 0
-472 -415 0
-473 -416 0
-474 -417 0
-445 -418 0
-446 -419 0
-447 -420 0
-487 -427 0
-488 -428 0
-489 -429 0
-475 -436 0
-476 -437 0
-477 -438 0
-451 -439 0
-452 -440 0
-453 -441 0
-481 -448 0
-482 -449 0
-483 -450 0
-463 -457 0
-464 -458 0
-465 -459 0
-469 -460 0
-470 -461 0
-471 -462 0
-487 -466 0
-488 -467 0
-489 -468 0
-508 -466 0
-509 -467 0
-510 -468 0
-508 -469 0
-509 -470 0
-510 -471 0
-496 -475 0
-497 -476 0
-498 -477 0
-523 -475 0
-524 -476 0
-525 -477 0
-496 -484 0
-497 -485 0
-498 -486 0
-499 -496 0
-500 -497 0
-501 -498 0
-520 -508 0
-521 -509 0
-522 -510 0
